% File represents an instance of a Composite Structure problem to be solved by a CP framework
% Created on 2025-03-26 10:41:22.486
T = 54;
n = 16;
m = 24;
edges = [(1, 2),
(5, 6),
(10, 9),
(14, 13),
(3, 2),
(7, 6),
(11, 10),
(15, 14),
(4, 3),
(8, 7),
(11, 12),
(16, 15),
(5, 1),
(5, 9),
(9, 13),
(6, 2),
(10, 6),
(10, 14),
(7, 3),
(11, 7),
(11, 15),
(8, 4),
(8, 12),
(16, 12)];
counts = [|18, 6, 18, 4,
|18, 4, 18, 2,
|20, 4, 20, 2,
|20, 8, 20, 4,
|20, 6, 20, 4,
|18, 4, 18, 4,
|20, 4, 20, 4,
|20, 8, 20, 6,
|20, 4, 20, 2,
|20, 4, 20, 6,
|20, 6, 20, 6,
|20, 4, 20, 4,
|18, 4, 18, 2,
|20, 4, 20, 2,
|20, 6, 20, 4,
|22, 6, 22, 4|];
